\ Model Truncated Impossible Differential Evaluation
\ LP format - for model browsing. Use MPS format to capture full model detail.
Minimize
 
Subject To
 R0: x[0,0] = 0
 R1: x[0,1] = 0
 R2: x[0,2] = 0
 R3: x[0,3] = 0
 R4: x[0,4] = 0
 R5: x[0,5] = 0
 R6: x[0,6] = 0
 R7: x[0,7] = 0
 R8: x[0,8] = 0
 R9: x[0,9] = 1
 R10: x[12,0] = 0
 R11: x[13,0] = 0
 R12: x[12,2] = 0
 R13: x[13,2] = 0
 R14: x[12,4] = 0
 R15: x[13,4] = 0
 R16: x[12,6] = 0
 R17: x[13,6] = 0
 R18: x[12,8] = 1
 R19: x[13,8] = 0
 R20: x[0,0] + x[0,1] - x[1,2] >= 0
 R21: x[0,0] - x[0,1] + x[1,2] >= 0
 R22: - x[0,0] + x[0,1] + x[1,2] >= 0
 R23: x[0,0] + x[1,0] - x[2,2] >= 0
 R24: - x[0,0] + x[1,0] + x[2,2] >= 0
 R25: x[0,0] - x[1,0] + x[2,2] >= 0
 R26: x[0,2] + x[0,3] - x[1,0] >= 0
 R27: x[0,2] - x[0,3] + x[1,0] >= 0
 R28: - x[0,2] + x[0,3] + x[1,0] >= 0
 R29: x[0,4] - x[2,0] + x[1,2] >= 0
 R30: - x[0,4] + x[2,0] + x[1,2] >= 0
 R31: x[0,4] + x[2,0] - x[1,2] >= 0
 R32: x[0,4] + x[0,5] - x[1,6] >= 0
 R33: x[0,4] - x[0,5] + x[1,6] >= 0
 R34: - x[0,4] + x[0,5] + x[1,6] >= 0
 R35: x[0,2] + x[1,4] - x[2,6] >= 0
 R36: - x[0,2] + x[1,4] + x[2,6] >= 0
 R37: x[0,2] - x[1,4] + x[2,6] >= 0
 R38: x[0,6] + x[0,7] - x[1,4] >= 0
 R39: x[0,6] - x[0,7] + x[1,4] >= 0
 R40: - x[0,6] + x[0,7] + x[1,4] >= 0
 R41: x[0,8] - x[2,4] + x[1,6] >= 0
 R42: - x[0,8] + x[2,4] + x[1,6] >= 0
 R43: x[0,8] + x[2,4] - x[1,6] >= 0
 R44: x[0,8] + x[0,9] - x[1,8] >= 0
 R45: x[0,8] - x[0,9] + x[1,8] >= 0
 R46: - x[0,8] + x[0,9] + x[1,8] >= 0
 R47: x[0,6] + x[1,8] - x[2,8] >= 0
 R48: - x[0,6] + x[1,8] + x[2,8] >= 0
 R49: x[0,6] - x[1,8] + x[2,8] >= 0
 R50: x[1,0] + x[2,0] - x[3,2] >= 0
 R51: - x[1,0] + x[2,0] + x[3,2] >= 0
 R52: x[1,0] - x[2,0] + x[3,2] >= 0
 R53: - x[3,0] + x[2,2] + x[1,4] >= 0
 R54: x[3,0] + x[2,2] - x[1,4] >= 0
 R55: x[3,0] - x[2,2] + x[1,4] >= 0
 R56: x[1,2] + x[2,4] - x[3,6] >= 0
 R57: - x[1,2] + x[2,4] + x[3,6] >= 0
 R58: x[1,2] - x[2,4] + x[3,6] >= 0
 R59: - x[3,4] + x[2,6] + x[1,8] >= 0
 R60: x[3,4] + x[2,6] - x[1,8] >= 0
 R61: x[3,4] - x[2,6] + x[1,8] >= 0
 R62: x[1,6] + x[2,8] - x[3,8] >= 0
 R63: - x[1,6] + x[2,8] + x[3,8] >= 0
 R64: x[1,6] - x[2,8] + x[3,8] >= 0
 R65: x[2,0] + x[3,0] - x[4,2] >= 0
 R66: - x[2,0] + x[3,0] + x[4,2] >= 0
 R67: x[2,0] - x[3,0] + x[4,2] >= 0
 R68: - x[4,0] + x[3,2] + x[2,4] >= 0
 R69: x[4,0] + x[3,2] - x[2,4] >= 0
 R70: x[4,0] - x[3,2] + x[2,4] >= 0
 R71: x[2,2] + x[3,4] - x[4,6] >= 0
 R72: - x[2,2] + x[3,4] + x[4,6] >= 0
 R73: x[2,2] - x[3,4] + x[4,6] >= 0
 R74: - x[4,4] + x[3,6] + x[2,8] >= 0
 R75: x[4,4] + x[3,6] - x[2,8] >= 0
 R76: x[4,4] - x[3,6] + x[2,8] >= 0
 R77: x[2,6] + x[3,8] - x[4,8] >= 0
 R78: - x[2,6] + x[3,8] + x[4,8] >= 0
 R79: x[2,6] - x[3,8] + x[4,8] >= 0
 R80: x[3,0] + x[4,0] - x[5,2] >= 0
 R81: - x[3,0] + x[4,0] + x[5,2] >= 0
 R82: x[3,0] - x[4,0] + x[5,2] >= 0
 R83: - x[5,0] + x[4,2] + x[3,4] >= 0
 R84: x[5,0] + x[4,2] - x[3,4] >= 0
 R85: x[5,0] - x[4,2] + x[3,4] >= 0
 R86: x[3,2] + x[4,4] - x[5,6] >= 0
 R87: - x[3,2] + x[4,4] + x[5,6] >= 0
 R88: x[3,2] - x[4,4] + x[5,6] >= 0
 R89: - x[5,4] + x[4,6] + x[3,8] >= 0
 R90: x[5,4] + x[4,6] - x[3,8] >= 0
 R91: x[5,4] - x[4,6] + x[3,8] >= 0
 R92: x[3,6] + x[4,8] - x[5,8] >= 0
 R93: - x[3,6] + x[4,8] + x[5,8] >= 0
 R94: x[3,6] - x[4,8] + x[5,8] >= 0
 R95: x[4,0] + x[5,0] - x[6,2] >= 0
 R96: - x[4,0] + x[5,0] + x[6,2] >= 0
 R97: x[4,0] - x[5,0] + x[6,2] >= 0
 R98: - x[6,0] + x[5,2] + x[4,4] >= 0
 R99: x[6,0] + x[5,2] - x[4,4] >= 0
 R100: x[6,0] - x[5,2] + x[4,4] >= 0
 R101: x[4,2] + x[5,4] - x[6,6] >= 0
 R102: - x[4,2] + x[5,4] + x[6,6] >= 0
 R103: x[4,2] - x[5,4] + x[6,6] >= 0
 R104: - x[6,4] + x[5,6] + x[4,8] >= 0
 R105: x[6,4] + x[5,6] - x[4,8] >= 0
 R106: x[6,4] - x[5,6] + x[4,8] >= 0
 R107: x[4,6] + x[5,8] - x[6,8] >= 0
 R108: - x[4,6] + x[5,8] + x[6,8] >= 0
 R109: x[4,6] - x[5,8] + x[6,8] >= 0
 R110: x[5,0] + x[6,0] - x[7,2] >= 0
 R111: - x[5,0] + x[6,0] + x[7,2] >= 0
 R112: x[5,0] - x[6,0] + x[7,2] >= 0
 R113: - x[7,0] + x[6,2] + x[5,4] >= 0
 R114: x[7,0] + x[6,2] - x[5,4] >= 0
 R115: x[7,0] - x[6,2] + x[5,4] >= 0
 R116: x[5,2] + x[6,4] - x[7,6] >= 0
 R117: - x[5,2] + x[6,4] + x[7,6] >= 0
 R118: x[5,2] - x[6,4] + x[7,6] >= 0
 R119: - x[7,4] + x[6,6] + x[5,8] >= 0
 R120: x[7,4] + x[6,6] - x[5,8] >= 0
 R121: x[7,4] - x[6,6] + x[5,8] >= 0
 R122: x[5,6] + x[6,8] - x[7,8] >= 0
 R123: - x[5,6] + x[6,8] + x[7,8] >= 0
 R124: x[5,6] - x[6,8] + x[7,8] >= 0
 R125: x[6,0] + x[7,0] - x[8,2] >= 0
 R126: - x[6,0] + x[7,0] + x[8,2] >= 0
 R127: x[6,0] - x[7,0] + x[8,2] >= 0
 R128: - x[8,0] + x[7,2] + x[6,4] >= 0
 R129: x[8,0] + x[7,2] - x[6,4] >= 0
 R130: x[8,0] - x[7,2] + x[6,4] >= 0
 R131: x[6,2] + x[7,4] - x[8,6] >= 0
 R132: - x[6,2] + x[7,4] + x[8,6] >= 0
 R133: x[6,2] - x[7,4] + x[8,6] >= 0
 R134: - x[8,4] + x[7,6] + x[6,8] >= 0
 R135: x[8,4] + x[7,6] - x[6,8] >= 0
 R136: x[8,4] - x[7,6] + x[6,8] >= 0
 R137: x[6,6] + x[7,8] - x[8,8] >= 0
 R138: - x[6,6] + x[7,8] + x[8,8] >= 0
 R139: x[6,6] - x[7,8] + x[8,8] >= 0
 R140: x[7,0] + x[8,0] - x[9,2] >= 0
 R141: - x[7,0] + x[8,0] + x[9,2] >= 0
 R142: x[7,0] - x[8,0] + x[9,2] >= 0
 R143: - x[9,0] + x[8,2] + x[7,4] >= 0
 R144: x[9,0] + x[8,2] - x[7,4] >= 0
 R145: x[9,0] - x[8,2] + x[7,4] >= 0
 R146: x[7,2] + x[8,4] - x[9,6] >= 0
 R147: - x[7,2] + x[8,4] + x[9,6] >= 0
 R148: x[7,2] - x[8,4] + x[9,6] >= 0
 R149: - x[9,4] + x[8,6] + x[7,8] >= 0
 R150: x[9,4] + x[8,6] - x[7,8] >= 0
 R151: x[9,4] - x[8,6] + x[7,8] >= 0
 R152: x[7,6] + x[8,8] - x[9,8] >= 0
 R153: - x[7,6] + x[8,8] + x[9,8] >= 0
 R154: x[7,6] - x[8,8] + x[9,8] >= 0
 R155: x[8,0] + x[9,0] - x[10,2] >= 0
 R156: - x[8,0] + x[9,0] + x[10,2] >= 0
 R157: x[8,0] - x[9,0] + x[10,2] >= 0
 R158: - x[10,0] + x[9,2] + x[8,4] >= 0
 R159: x[10,0] + x[9,2] - x[8,4] >= 0
 R160: x[10,0] - x[9,2] + x[8,4] >= 0
 R161: x[8,2] + x[9,4] - x[10,6] >= 0
 R162: - x[8,2] + x[9,4] + x[10,6] >= 0
 R163: x[8,2] - x[9,4] + x[10,6] >= 0
 R164: - x[10,4] + x[9,6] + x[8,8] >= 0
 R165: x[10,4] + x[9,6] - x[8,8] >= 0
 R166: x[10,4] - x[9,6] + x[8,8] >= 0
 R167: x[8,6] + x[9,8] - x[10,8] >= 0
 R168: - x[8,6] + x[9,8] + x[10,8] >= 0
 R169: x[8,6] - x[9,8] + x[10,8] >= 0
 R170: x[9,0] + x[10,0] - x[11,2] >= 0
 R171: - x[9,0] + x[10,0] + x[11,2] >= 0
 R172: x[9,0] - x[10,0] + x[11,2] >= 0
 R173: - x[11,0] + x[10,2] + x[9,4] >= 0
 R174: x[11,0] + x[10,2] - x[9,4] >= 0
 R175: x[11,0] - x[10,2] + x[9,4] >= 0
 R176: x[9,2] + x[10,4] - x[11,6] >= 0
 R177: - x[9,2] + x[10,4] + x[11,6] >= 0
 R178: x[9,2] - x[10,4] + x[11,6] >= 0
 R179: - x[11,4] + x[10,6] + x[9,8] >= 0
 R180: x[11,4] + x[10,6] - x[9,8] >= 0
 R181: x[11,4] - x[10,6] + x[9,8] >= 0
 R182: x[9,6] + x[10,8] - x[11,8] >= 0
 R183: - x[9,6] + x[10,8] + x[11,8] >= 0
 R184: x[9,6] - x[10,8] + x[11,8] >= 0
 R185: x[10,0] + x[11,0] - x[12,2] >= 0
 R186: - x[10,0] + x[11,0] + x[12,2] >= 0
 R187: x[10,0] - x[11,0] + x[12,2] >= 0
 R188: - x[12,0] + x[11,2] + x[10,4] >= 0
 R189: x[12,0] + x[11,2] - x[10,4] >= 0
 R190: x[12,0] - x[11,2] + x[10,4] >= 0
 R191: x[10,2] + x[11,4] - x[12,6] >= 0
 R192: - x[10,2] + x[11,4] + x[12,6] >= 0
 R193: x[10,2] - x[11,4] + x[12,6] >= 0
 R194: - x[12,4] + x[11,6] + x[10,8] >= 0
 R195: x[12,4] + x[11,6] - x[10,8] >= 0
 R196: x[12,4] - x[11,6] + x[10,8] >= 0
 R197: x[10,6] + x[11,8] - x[12,8] >= 0
 R198: - x[10,6] + x[11,8] + x[12,8] >= 0
 R199: x[10,6] - x[11,8] + x[12,8] >= 0
 R200: x[11,0] + x[12,0] - x[13,2] >= 0
 R201: - x[11,0] + x[12,0] + x[13,2] >= 0
 R202: x[11,0] - x[12,0] + x[13,2] >= 0
 R203: - x[13,0] + x[12,2] + x[11,4] >= 0
 R204: x[13,0] + x[12,2] - x[11,4] >= 0
 R205: x[13,0] - x[12,2] + x[11,4] >= 0
 R206: x[11,2] + x[12,4] - x[13,6] >= 0
 R207: - x[11,2] + x[12,4] + x[13,6] >= 0
 R208: x[11,2] - x[12,4] + x[13,6] >= 0
 R209: - x[13,4] + x[12,6] + x[11,8] >= 0
 R210: x[13,4] + x[12,6] - x[11,8] >= 0
 R211: x[13,4] - x[12,6] + x[11,8] >= 0
 R212: x[11,6] + x[12,8] - x[13,8] >= 0
 R213: - x[11,6] + x[12,8] + x[13,8] >= 0
 R214: x[11,6] - x[12,8] + x[13,8] >= 0
Bounds
Binaries
 x[0,0] x[0,1] x[0,2] x[0,3] x[0,4] x[0,5] x[0,6] x[0,7] x[0,8] x[0,9]
 x[1,0] x[2,0] x[3,0] x[4,0] x[5,0] x[6,0] x[7,0] x[8,0] x[9,0] x[10,0]
 x[11,0] x[12,0] x[13,0] x[1,2] x[2,2] x[3,2] x[4,2] x[5,2] x[6,2] x[7,2]
 x[8,2] x[9,2] x[10,2] x[11,2] x[12,2] x[13,2] x[1,4] x[2,4] x[3,4] x[4,4]
 x[5,4] x[6,4] x[7,4] x[8,4] x[9,4] x[10,4] x[11,4] x[12,4] x[13,4] x[1,6]
 x[2,6] x[3,6] x[4,6] x[5,6] x[6,6] x[7,6] x[8,6] x[9,6] x[10,6] x[11,6]
 x[12,6] x[13,6] x[1,8] x[2,8] x[3,8] x[4,8] x[5,8] x[6,8] x[7,8] x[8,8]
 x[9,8] x[10,8] x[11,8] x[12,8] x[13,8]
End
